(set-logic QF_SLIA)
(declare-fun var0 () String)
(assert (str.in_re var0 (re.++ ((_ re.loop 11 151) (re.++ (re.union (str.to_re "[") (re.union (str.to_re "`H") (re.union (str.to_re "W<") (str.to_re "/h%")))) (re.++ (re.union (str.to_re "EeF") (re.union (str.to_re "i") (re.union (str.to_re "tAM") (str.to_re "ju+")))) (re.++ (re.union (str.to_re "Br") (re.union (str.to_re "kL") (re.union (str.to_re "s") (str.to_re "=")))) (re.union (str.to_re "&*") (re.union (str.to_re "~") (re.union (str.to_re "(") (str.to_re "3&L")))))))) (re.++ ((_ re.loop 4 441) (re.++ (re.union (str.to_re "FWi") (re.union (str.to_re "19S") (re.union (str.to_re "F1") (str.to_re "q")))) (re.++ (re.union (str.to_re "V*g") (re.union (str.to_re "B8") (re.union (str.to_re "g") (str.to_re "k")))) (re.++ (re.union (str.to_re "&Vx") (re.union (str.to_re "^T") (re.union (str.to_re "xb,") (str.to_re "(X]")))) (re.union (str.to_re "W") (re.union (str.to_re "1") (re.union (str.to_re "n.t") (str.to_re "*")))))))) (re.++ ((_ re.loop 0 929) (re.++ (re.union (str.to_re ",7&") (re.union (str.to_re "XHI") (re.union (str.to_re "{s") (str.to_re "XRo")))) (re.++ (re.union (str.to_re "_8") (re.union (str.to_re "7") (re.union (str.to_re "B") (str.to_re ")]^")))) (re.++ (re.union (str.to_re "\u0022p!") (re.union (str.to_re "E") (re.union (str.to_re "U") (str.to_re "\\")))) (re.union (str.to_re "p(-") (re.union (str.to_re "Q") (re.union (str.to_re "*SA") (str.to_re "$K")))))))) ((_ re.loop 18 785) (re.++ (re.union (str.to_re "r") (re.union (str.to_re "4") (re.union (str.to_re "WK") (str.to_re "n(")))) (re.++ (re.union (str.to_re "A&") (re.union (str.to_re "ip") (re.union (str.to_re "ovp") (str.to_re "l.")))) (re.++ (re.union (str.to_re "\u0022l") (re.union (str.to_re "1N") (re.union (str.to_re "tE{") (str.to_re "K")))) (re.union (str.to_re "a~x") (re.union (str.to_re "T}S") (re.union (str.to_re "%") (str.to_re "dWl")))))))))))))
(assert (not (str.in_re var0 (re.++ ((_ re.loop 0 480) (re.++ (re.union (str.to_re "i") (re.union (str.to_re "|&=") (re.union (str.to_re "o,V") (str.to_re ":")))) (re.++ (re.union (str.to_re "Y") (re.union (str.to_re "\\0Z") (re.union (str.to_re "ex`") (str.to_re "w")))) (re.++ (re.union (str.to_re "#{") (re.union (str.to_re "M7r") (re.union (str.to_re "P") (str.to_re "]jr")))) (re.union (str.to_re "vE~") (re.union (str.to_re "!}") (re.union (str.to_re "FY") (str.to_re "1")))))))) (re.++ ((_ re.loop 19 991) (re.++ (re.union (str.to_re "?uc") (re.union (str.to_re "7]") (re.union (str.to_re ".") (str.to_re "<CW")))) (re.++ (re.union (str.to_re "j|") (re.union (str.to_re ")Q") (re.union (str.to_re "]y") (str.to_re "urQ")))) (re.++ (re.union (str.to_re "T") (re.union (str.to_re "%B]") (re.union (str.to_re "!") (str.to_re "9}")))) (re.union (str.to_re "&VW") (re.union (str.to_re "lu") (re.union (str.to_re "|") (str.to_re "}")))))))) (re.++ ((_ re.loop 7 893) (re.++ (re.union (str.to_re "q") (re.union (str.to_re "O") (re.union (str.to_re "X") (str.to_re "*")))) (re.++ (re.union (str.to_re "&)L") (re.union (str.to_re "\u0022GI") (re.union (str.to_re "Z0") (str.to_re "7|2")))) (re.++ (re.union (str.to_re "F=V") (re.union (str.to_re "jX^") (re.union (str.to_re "@") (str.to_re "IC")))) (re.union (str.to_re "C") (re.union (str.to_re "?S?") (re.union (str.to_re "8vL") (str.to_re ">]W")))))))) ((_ re.loop 10 238) (re.++ (re.union (str.to_re "?") (re.union (str.to_re "+#") (re.union (str.to_re ":w#") (str.to_re "#S")))) (re.++ (re.union (str.to_re "?@Q") (re.union (str.to_re "/H") (re.union (str.to_re "_T%") (str.to_re "q")))) (re.++ (re.union (str.to_re "M") (re.union (str.to_re "W]") (re.union (str.to_re "ER<") (str.to_re "k")))) (re.union (str.to_re "I") (re.union (str.to_re "udB") (re.union (str.to_re "HE&") (str.to_re "@2"))))))))))))))
(assert (not (str.in_re var0 (re.++ (re.* re.allchar) (re.++ (re.union (str.to_re "<") (re.union (str.to_re ">") (re.union (str.to_re "'") (re.union (str.to_re "\u0022") (str.to_re "&"))))) (re.* re.allchar))))))
(assert (<= 50 (str.len var0)))
(check-sat)
(get-model)
